webassembly/ejemplos_dzn/folder12_json_3.dzn
TERM = { '.', 's(2)', 's(4)', 'in_1', 'local_0', 'local_1', 'in_2', 'in_4', 'in_3', 's(1)', 's(0)', 's(3)', 'in_0'};
null = '.';
s = 12;
n = 11;
ndeps = 7;
max_registers_sz = 5;
NR = 2;
registers = [|'local_0', 'in_4', |'local_1', 's(4)'|];
dependencies = [|'i32.load_1', 'i32.store8_5', |'i32.store8_5', 'i32.load8_s_6', |'i32.store8_5', 'i32.load_8', |'i32.load_2', 'i32.store8_5', |'i32.load_3', 'i32.store8_5', |'i32.load8_s_6', 'i32.store8_10', |'i32.load_8', 'i32.store8_10'|];
GET_ENUM = { GET1, GET2, GET3, GET4, GET5, GET6, GET7};
SET_ENUM = { SET1, SET2, SET3, SET4, SET5, SET6, SET7};
TEE_ENUM = { TEE1, TEE2, TEE3, TEE4, TEE5, TEE6, TEE7};
N = 7;
OP = { 'i32.load_1', 'i32.load_2', 'i32.load_3', 'i32.store8_5', 'i32.load8_s_6', 'i32.load_8', 'i32.store8_10' };
in_ops = [1, 1, 1, 2, 1, 1, 2 ];
out_ops = [1, 1, 1, 0, 1, 1, 0 ];
in1 = ['local_1', 's(0)', 's(1)', 's(2)', 'in_1', 'in_2', 's(4)' ];
in2 = ['.', '.', '.', 'in_0', '.', '.', 'in_3' ];
in3 = ['.', '.', '.', '.', '.', '.', '.' ];
out1 = ['s(0)', 's(1)', 's(2)', '.', 's(3)', 's(4)', '.' ];
out2 = ['.', '.', '.', '.', '.', '.', '.' ];
out3 = ['.', '.', '.', '.', '.', '.', '.' ];
comm = [false, false, false, false, false, false, false ];
gas = [1, 1, 1, 1, 1, 1, 1 ];
sz = [1, 1, 1, 1, 1, 1, 1 ];
stor = [false, false, false, true, false, false, true ];
lb = [ 1, 1, 1, 1, 1, 1, 1 ];
ub = [ 12, 12, 12, 12, 12, 12, 12 ];
startstack = [ 'in_0', 'in_1', 'in_2', 'in_3', 'in_4', null, null, null, null, null, null ];
endstack = [ 'in_4', null, null, null, null, null, null, null, null, null, null ];
