webassembly/ejemplos_results/12/folder12_json_3.txt
value = 11;
fgas = [2, 1, 2, 1, 1, 1, 1, 1, 1, 1, 1, 0];
fsize = [1, 1, 1, 1, 1, 1, 1, 1, 1, 1, 1, 1];
states = 
[|    in_0, in_1, in_2, in_3, in_4, '.', '.', '.', '.', '.', '.'
 |    in_1, in_2, in_3, in_4,  '.', '.', '.', '.', '.', '.', '.'
 |  's(3)', in_2, in_3, in_4,  '.', '.', '.', '.', '.', '.', '.'
 |    in_2, in_3, in_4,  '.',  '.', '.', '.', '.', '.', '.', '.'
 |  's(4)', in_3, in_4,  '.',  '.', '.', '.', '.', '.', '.', '.'
 | local_1, in_0,  '.',  '.',  '.', '.', '.', '.', '.', '.', '.'
 |  's(0)', in_0,  '.',  '.',  '.', '.', '.', '.', '.', '.', '.'
 |  's(1)', in_0,  '.',  '.',  '.', '.', '.', '.', '.', '.', '.'
 |  's(2)', in_0,  '.',  '.',  '.', '.', '.', '.', '.', '.', '.'
 |  's(4)', in_4,  '.',  '.',  '.', '.', '.', '.', '.', '.', '.'
 |    in_4,  '.',  '.',  '.',  '.', '.', '.', '.', '.', '.', '.'
 |    in_4,  '.',  '.',  '.',  '.', '.', '.', '.', '.', '.', '.'
 |    in_4,  '.',  '.',  '.',  '.', '.', '.', '.', '.', '.', '.'
 |];
register_states = 
[| local_0, local_1, '.', '.', '.', '.', '.'
 | local_0, local_1, '.', '.', '.', '.', '.'
 | local_0, local_1, '.', '.', '.', '.', '.'
 | local_0, local_1, '.', '.', '.', '.', '.'
 | local_0, local_1, '.', '.', '.', '.', '.'
 | local_0, local_1, '.', '.', '.', '.', '.'
 | local_0, local_1, '.', '.', '.', '.', '.'
 | local_0, local_1, '.', '.', '.', '.', '.'
 | local_0, local_1, '.', '.', '.', '.', '.'
 | local_0, local_1, '.', '.', '.', '.', '.'
 | local_0,  's(4)', '.', '.', '.', '.', '.'
 |    in_4,  's(4)', '.', '.', '.', '.', '.'
 |    in_4,  's(4)', '.', '.', '.', '.', '.'
 |];
program = [POP, O('i32.load8_s_6'), POP, O('i32.load_8'), O('i32.store8_10'), O('i32.load_1'), O('i32.load_2'), O('i32.load_3'), O('i32.store8_5'), S(SET2), TEE(TEE1), NOP];
% time elapsed: 0.29 s
----------
==========
% time elapsed: 0.30 s
% [value > 10]
